60
25 69
23 29
17 77
24 12
27 96
14 96
16 12
26 84
9 63
26 83
20 43
4 96
18 86
18 72
19 58
26 54
2 15
11 100
23 70
15 17
12 89
2 48
14 89
11 8
2 12
17 7
4 92
9 72
23 12
11 38
21 53
7 98
29 25
24 10
6 11
1 59
28 89
28 3
22 93
17 28
6 3
6 15
6 40
23 26
23 80
23 23
22 6
20 99
30 20
10 75
5 85
6 80
4 43
27 3
2 95
10 43
7 20
1 95
13 42
24 13
